
Gurobi 7.0.2 (linux64, Matlab) logging started Sun Sep  2 08:55:54 2018


Gurobi 7.0.2 (linux64) logging started Sun Sep  2 08:55:54 2018

Optimize a model with 54524 rows, 192618 columns and 599436 nonzeros
Coefficient statistics:
  Matrix range     [1e+00, 1e+00]
  Objective range  [1e-06, 1e+01]
  Bounds range     [1e+00, 1e+00]
  RHS range        [1e+00, 1e+00]
Iteration    Objective       Primal Inf.    Dual Inf.      Time
       0   -2.0661020e+02   0.000000e+00   0.000000e+00      0s

Solved in 0 iterations and 0.05 seconds
Optimal objective -2.066102000e+02
